sat
(
  (define-fun ProcProv6 () Int
    3)
  (define-fun C3_VM5 () Int
    0)
  (define-fun MemProv5 () Int
    7500)
  (define-fun C5_VM4 () Int
    1)
  (define-fun C4_VM5 () Int
    0)
  (define-fun C5_VM5 () Int
    1)
  (define-fun C5_VM1 () Int
    0)
  (define-fun StorageProv5 () Int
    2000)
  (define-fun PriceProv4 () Int
    632)
  (define-fun MemProv1 () Int
    7500)
  (define-fun C1_VM4 () Int
    0)
  (define-fun MemProv3 () Int
    7500)
  (define-fun ProcProv2 () Int
    8)
  (define-fun MemProv4 () Int
    7000)
  (define-fun VM5Type () Int
    26)
  (define-fun VM1Type () Int
    26)
  (define-fun C2_VM5 () Int
    1)
  (define-fun VM6Type () Int
    0)
  (define-fun C4_VM3 () Int
    0)
  (define-fun StorageProv2 () Int
    2000)
  (define-fun StorageProv1 () Int
    2000)
  (define-fun StorageProv6 () Int
    1999)
  (define-fun C3_VM1 () Int
    0)
  (define-fun ProcProv3 () Int
    4)
  (define-fun C3_VM6 () Int
    0)
  (define-fun VM3Type () Int
    26)
  (define-fun C3_VM2 () Int
    0)
  (define-fun C4_VM4 () Int
    0)
  (define-fun MemProv2 () Int
    68400)
  (define-fun ProcProv4 () Int
    8)
  (define-fun C1_VM2 () Int
    0)
  (define-fun PriceProv3 () Int
    252)
  (define-fun C5_VM6 () Int
    0)
  (define-fun C1_VM6 () Int
    0)
  (define-fun StorageProv4 () Int
    4000)
  (define-fun C5_VM2 () Int
    0)
  (define-fun C3_VM3 () Int
    0)
  (define-fun C1_VM5 () Int
    0)
  (define-fun PriceProv1 () Int
    252)
  (define-fun StorageProv3 () Int
    2000)
  (define-fun VM4Type () Int
    21)
  (define-fun C4_VM2 () Int
    1)
  (define-fun PriceProv5 () Int
    252)
  (define-fun MemProv6 () Int
    30499)
  (define-fun C4_VM6 () Int
    0)
  (define-fun C2_VM2 () Int
    0)
  (define-fun C2_VM3 () Int
    1)
  (define-fun PriceProv6 () Int
    0)
  (define-fun C5_VM3 () Int
    1)
  (define-fun C4_VM1 () Int
    0)
  (define-fun C2_VM6 () Int
    0)
  (define-fun C2_VM4 () Int
    0)
  (define-fun C1_VM3 () Int
    0)
  (define-fun VM2Type () Int
    22)
  (define-fun ProcProv1 () Int
    4)
  (define-fun C3_VM4 () Int
    1)
  (define-fun C2_VM1 () Int
    0)
  (define-fun ProcProv5 () Int
    4)
  (define-fun PriceProv2 () Int
    1288)
  (define-fun C1_VM1 () Int
    1)
)
(objectives
 ((+ 0 PriceProv1 PriceProv2 PriceProv3 PriceProv4 PriceProv5 PriceProv6) 2676)
)
(:added-eqs                   217776
 :arith-eq-adapter            11704
 :arith-bound-propagations-lp 42741
 :arith-conflicts             163
 :arith-diseq                 361654
 :arith-fixed-eqs             3209
 :arith-lower                 392875
 :arith-make-feasible         28453
 :arith-max-columns           147
 :arith-max-rows              20
 :arith-upper                 384277
 :binary-propagations         1464971
 :conflicts                   5812
 :decisions                   65178
 :del-clause                  56180
 :final-checks                177
 :max-memory                  48.60
 :memory                      48.42
 :minimized-lits              64260
 :mk-bool-var                 25041
 :mk-clause                   57813
 :mk-clause-binary            4411
 :num-allocs                  124197954
 :num-checks                  136
 :pb-conflicts                1854
 :pb-predicates               474
 :pb-propagations             9876
 :pb-resolves                 1842
 :propagations                2745636
 :restarts                    42
 :rlimit-count                12946422
 :solve-eqs-elim-vars         1
 :solve-eqs-steps             10
 :time                        0.61
 :total-time                  0.62)
